\ Model Cl_30_Ins_3.lp
\ LP format - for model browsing. Use MPS format to capture full model detail.
Maximize
 
Subject To
 obj1: y[0] = 0
 obj2: y[1] = 0
 obj1_Exp: - y[0] + 95 x[0] + 93 x[1] + 90 x[2] + 89 x[3] + 89 x[4]
   + 84 x[5] + 81 x[6] + 79 x[7] + 77 x[8] + 75 x[9] + 70 x[10] + 67 x[11]
   + 65 x[12] + 64 x[13] + 61 x[14] + 46 x[15] + 41 x[16] + 37 x[17]
   + 36 x[18] + 33 x[19] + 32 x[20] + 28 x[21] + 25 x[22] + 24 x[23]
   + 23 x[24] + 23 x[25] + 11 x[26] + 10 x[27] + 6 x[28] + 2 x[29] = 0
 obj2_Exp: - y[1] + 48 x[0] + 34 x[1] + 58 x[2] + 46 x[3] + 14 x[4]
   + 85 x[5] + 48 x[6] + 33 x[7] + 17 x[8] + 50 x[9] + 36 x[10] + 46 x[11]
   + 9 x[12] + 44 x[13] + 73 x[14] + 88 x[15] + 5 x[16] + 19 x[17]
   + 76 x[18] + 97 x[19] + 96 x[20] + 30 x[21] + 20 x[22] + 3 x[23]
   + 64 x[24] + 47 x[25] + 69 x[26] + 18 x[27] + 41 x[28] + 64 x[29] = 0
 Budget: 105 x[0] + 103 x[1] + 100 x[2] + 99 x[3] + 99 x[4] + 94 x[5]
   + 91 x[6] + 89 x[7] + 87 x[8] + 85 x[9] + 80 x[10] + 77 x[11] + 75 x[12]
   + 74 x[13] + 71 x[14] + 56 x[15] + 51 x[16] + 47 x[17] + 46 x[18]
   + 43 x[19] + 42 x[20] + 38 x[21] + 35 x[22] + 34 x[23] + 33 x[24]
   + 33 x[25] + 21 x[26] + 20 x[27] + 16 x[28] + 12 x[29] <= 731
Bounds
Binaries
 x[0] x[1] x[2] x[3] x[4] x[5] x[6] x[7] x[8] x[9] x[10] x[11] x[12] x[13]
 x[14] x[15] x[16] x[17] x[18] x[19] x[20] x[21] x[22] x[23] x[24] x[25]
 x[26] x[27] x[28] x[29]
Generals
 y[0] y[1]
End
